p cnf 956 2451
51 -2 -689 0
-51 2 0
-51 689 0
52 -51 -3 0
-52 51 0
-52 3 0
53 -5 -4 0
-53 5 0
-53 4 0
54 -53 -6 0
-54 53 0
-54 6 0
55 -690 -691 0
-55 690 0
-55 691 0
56 -692 -7 0
-56 692 0
-56 7 0
57 -56 -693 0
-57 56 0
-57 693 0
58 -694 -55 0
-58 694 0
-58 55 0
59 -11 -10 0
-59 11 0
-59 10 0
60 -59 -12 0
-60 59 0
-60 12 0
61 -695 -58 0
-61 695 0
-61 58 0
62 -696 -13 0
-62 696 0
-62 13 0
63 -62 -697 0
-63 62 0
-63 697 0
64 -698 -61 0
-64 698 0
-64 61 0
65 -699 -1 0
-65 699 0
-65 1 0
66 -65 -700 0
-66 65 0
-66 700 0
67 -701 -64 0
-67 701 0
-67 64 0
68 -17 -702 0
-68 17 0
-68 702 0
69 -68 -6 0
-69 68 0
-69 6 0
70 -703 -67 0
-70 703 0
-70 67 0
71 -704 -705 0
-71 704 0
-71 705 0
72 -71 -706 0
-72 71 0
-72 706 0
73 -707 -70 0
-73 707 0
-73 70 0
74 -708 -709 0
-74 708 0
-74 709 0
75 -74 -696 0
-75 74 0
-75 696 0
76 -710 -73 0
-76 710 0
-76 73 0
77 -12 -692 0
-77 12 0
-77 692 0
78 -77 -711 0
-78 77 0
-78 711 0
79 -712 -76 0
-79 712 0
-79 76 0
80 -24 -23 0
-80 24 0
-80 23 0
81 -80 -713 0
-81 80 0
-81 713 0
82 -714 -79 0
-82 714 0
-82 79 0
83 -715 -18 0
-83 715 0
-83 18 0
84 -83 -3 0
-84 83 0
-84 3 0
85 -716 -82 0
-85 716 0
-85 82 0
86 -717 -718 0
-86 717 0
-86 718 0
87 -86 -29 0
-87 86 0
-87 29 0
88 -719 -85 0
-88 719 0
-88 85 0
89 -30 -16 0
-89 30 0
-89 16 0
90 -89 -14 0
-90 89 0
-90 14 0
91 -720 -88 0
-91 720 0
-91 88 0
92 -721 -30 0
-92 721 0
-92 30 0
93 -92 -713 0
-93 92 0
-93 713 0
94 -722 -91 0
-94 722 0
-94 91 0
95 -27 -17 0
-95 27 0
-95 17 0
96 -95 -32 0
-96 95 0
-96 32 0
97 -723 -94 0
-97 723 0
-97 94 0
98 -34 -724 0
-98 34 0
-98 724 0
99 -98 -693 0
-99 98 0
-99 693 0
100 -725 -97 0
-100 725 0
-100 97 0
101 -726 -30 0
-101 726 0
-101 30 0
102 -101 -22 0
-102 101 0
-102 22 0
103 -727 -100 0
-103 727 0
-103 100 0
104 -724 -15 0
-104 724 0
-104 15 0
105 -104 -36 0
-105 104 0
-105 36 0
106 -728 -103 0
-106 728 0
-106 103 0
107 -77 -700 0
-107 77 0
-107 700 0
108 -729 -106 0
-108 729 0
-108 106 0
109 -95 -713 0
-109 95 0
-109 713 0
110 -730 -108 0
-110 730 0
-110 108 0
111 -715 -731 0
-111 715 0
-111 731 0
112 -111 -732 0
-112 111 0
-112 732 0
113 -733 -110 0
-113 733 0
-113 110 0
114 -28 -734 0
-114 28 0
-114 734 0
115 -114 -735 0
-115 114 0
-115 735 0
116 -736 -113 0
-116 736 0
-116 113 0
117 -95 -737 0
-117 95 0
-117 737 0
118 -738 -116 0
-118 738 0
-118 116 0
119 -739 -705 0
-119 739 0
-119 705 0
120 -119 -734 0
-120 119 0
-120 734 0
121 -740 -118 0
-121 740 0
-121 118 0
122 -731 -5 0
-122 731 0
-122 5 0
123 -122 -741 0
-123 122 0
-123 741 0
124 -742 -121 0
-124 742 0
-124 121 0
125 -15 -12 0
-125 15 0
-125 12 0
126 -125 -743 0
-126 125 0
-126 743 0
127 -744 -124 0
-127 744 0
-127 124 0
128 -41 -745 0
-128 41 0
-128 745 0
129 -128 -25 0
-129 128 0
-129 25 0
130 -746 -127 0
-130 746 0
-130 127 0
131 -27 -16 0
-131 27 0
-131 16 0
132 -131 -14 0
-132 131 0
-132 14 0
133 -747 -130 0
-133 747 0
-133 130 0
134 -35 -20 0
-134 35 0
-134 20 0
135 -134 -30 0
-135 134 0
-135 30 0
136 -748 -133 0
-136 748 0
-136 133 0
137 -749 -13 0
-137 749 0
-137 13 0
138 -137 -713 0
-138 137 0
-138 713 0
139 -750 -136 0
-139 750 0
-139 136 0
140 -11 -4 0
-140 11 0
-140 4 0
141 -140 -739 0
-141 140 0
-141 739 0
142 -751 -139 0
-142 751 0
-142 139 0
143 -752 -42 0
-143 752 0
-143 42 0
144 -143 -3 0
-144 143 0
-144 3 0
145 -753 -142 0
-145 753 0
-145 142 0
146 -8 -754 0
-146 8 0
-146 754 0
147 -146 -37 0
-147 146 0
-147 37 0
148 -755 -145 0
-148 755 0
-148 145 0
149 -42 -731 0
-149 42 0
-149 731 0
150 -149 -735 0
-150 149 0
-150 735 0
151 -756 -148 0
-151 756 0
-151 148 0
152 -731 -2 0
-152 731 0
-152 2 0
153 -152 -724 0
-153 152 0
-153 724 0
154 -757 -151 0
-154 757 0
-154 151 0
155 -38 -28 0
-155 38 0
-155 28 0
156 -155 -732 0
-156 155 0
-156 732 0
157 -758 -154 0
-157 758 0
-157 154 0
158 -20 -6 0
-158 20 0
-158 6 0
159 -158 -3 0
-159 158 0
-159 3 0
160 -759 -157 0
-160 759 0
-160 157 0
161 -741 -5 0
-161 741 0
-161 5 0
162 -161 -35 0
-162 161 0
-162 35 0
163 -760 -160 0
-163 760 0
-163 160 0
164 -30 -761 0
-164 30 0
-164 761 0
165 -164 -44 0
-165 164 0
-165 44 0
166 -762 -163 0
-166 762 0
-166 163 0
167 -763 -1 0
-167 763 0
-167 1 0
168 -167 -45 0
-168 167 0
-168 45 0
169 -764 -166 0
-169 764 0
-169 166 0
170 -40 -11 0
-170 40 0
-170 11 0
171 -170 -706 0
-171 170 0
-171 706 0
172 -765 -169 0
-172 765 0
-172 169 0
173 -45 -766 0
-173 45 0
-173 766 0
174 -173 -44 0
-174 173 0
-174 44 0
175 -767 -172 0
-175 767 0
-175 172 0
176 -41 -2 0
-176 41 0
-176 2 0
177 -176 -45 0
-177 176 0
-177 45 0
178 -768 -175 0
-178 768 0
-178 175 0
179 -46 -711 0
-179 46 0
-179 711 0
180 -179 -769 0
-180 179 0
-180 769 0
181 -770 -178 0
-181 770 0
-181 178 0
182 -702 -1 0
-182 702 0
-182 1 0
183 -182 -22 0
-183 182 0
-183 22 0
184 -771 -181 0
-184 771 0
-184 181 0
185 -34 -19 0
-185 34 0
-185 19 0
186 -185 -36 0
-186 185 0
-186 36 0
187 -772 -184 0
-187 772 0
-187 184 0
188 -763 -700 0
-188 763 0
-188 700 0
189 -188 -43 0
-189 188 0
-189 43 0
190 -773 -187 0
-190 773 0
-190 187 0
191 -726 -724 0
-191 726 0
-191 724 0
192 -191 -9 0
-192 191 0
-192 9 0
193 -774 -190 0
-193 774 0
-193 190 0
194 -745 -718 0
-194 745 0
-194 718 0
195 -194 -705 0
-195 194 0
-195 705 0
196 -775 -193 0
-196 775 0
-196 193 0
197 -721 -16 0
-197 721 0
-197 16 0
198 -197 -44 0
-198 197 0
-198 44 0
199 -776 -196 0
-199 776 0
-199 196 0
200 -739 -732 0
-200 739 0
-200 732 0
201 -200 -700 0
-201 200 0
-201 700 0
202 -777 -199 0
-202 777 0
-202 199 0
203 -708 -14 0
-203 708 0
-203 14 0
204 -203 -693 0
-204 203 0
-204 693 0
205 -778 -202 0
-205 778 0
-205 202 0
206 -32 -779 0
-206 32 0
-206 779 0
207 -206 -711 0
-207 206 0
-207 711 0
208 -780 -205 0
-208 780 0
-208 205 0
209 -14 -779 0
-209 14 0
-209 779 0
210 -209 -34 0
-210 209 0
-210 34 0
211 -781 -208 0
-211 781 0
-211 208 0
212 -704 -4 0
-212 704 0
-212 4 0
213 -212 -693 0
-213 212 0
-213 693 0
214 -782 -211 0
-214 782 0
-214 211 0
215 -30 -14 0
-215 30 0
-215 14 0
216 -215 -783 0
-216 215 0
-216 783 0
217 -784 -214 0
-217 784 0
-217 214 0
218 -731 -785 0
-218 731 0
-218 785 0
219 -218 -19 0
-219 218 0
-219 19 0
220 -786 -217 0
-220 786 0
-220 217 0
221 -40 -13 0
-221 40 0
-221 13 0
222 -221 -708 0
-222 221 0
-222 708 0
223 -787 -220 0
-223 787 0
-223 220 0
224 -788 -741 0
-224 788 0
-224 741 0
225 -224 -693 0
-225 224 0
-225 693 0
226 -789 -223 0
-226 789 0
-226 223 0
227 -705 -689 0
-227 705 0
-227 689 0
228 -227 -36 0
-228 227 0
-228 36 0
229 -790 -226 0
-229 790 0
-229 226 0
230 -29 -9 0
-230 29 0
-230 9 0
231 -230 -36 0
-231 230 0
-231 36 0
232 -791 -229 0
-232 791 0
-232 229 0
233 -713 -2 0
-233 713 0
-233 2 0
234 -233 -792 0
-234 233 0
-234 792 0
235 -793 -232 0
-235 793 0
-235 232 0
236 -794 -30 0
-236 794 0
-236 30 0
237 -236 -48 0
-237 236 0
-237 48 0
238 -795 -235 0
-238 795 0
-238 235 0
239 -42 -39 0
-239 42 0
-239 39 0
240 -239 -32 0
-240 239 0
-240 32 0
241 -796 -238 0
-241 796 0
-241 238 0
242 -700 -6 0
-242 700 0
-242 6 0
243 -242 -797 0
-243 242 0
-243 797 0
244 -798 -241 0
-244 798 0
-244 241 0
245 -717 -761 0
-245 717 0
-245 761 0
246 -245 -724 0
-246 245 0
-246 724 0
247 -799 -244 0
-247 799 0
-247 244 0
248 -769 -689 0
-248 769 0
-248 689 0
249 -248 -706 0
-249 248 0
-249 706 0
250 -800 -247 0
-250 800 0
-250 247 0
251 -30 -699 0
-251 30 0
-251 699 0
252 -251 -749 0
-252 251 0
-252 749 0
253 -801 -250 0
-253 801 0
-253 250 0
254 -794 -726 0
-254 794 0
-254 726 0
255 -254 -711 0
-255 254 0
-255 711 0
256 -802 -253 0
-256 802 0
-256 253 0
257 -803 -763 0
-257 803 0
-257 763 0
258 -257 -693 0
-258 257 0
-258 693 0
259 -804 -256 0
-259 804 0
-259 256 0
260 -715 -754 0
-260 715 0
-260 754 0
261 -260 -769 0
-261 260 0
-261 769 0
262 -805 -259 0
-262 805 0
-262 259 0
263 -7 -785 0
-263 7 0
-263 785 0
264 -263 -724 0
-264 263 0
-264 724 0
265 -806 -262 0
-265 806 0
-265 262 0
266 -794 -38 0
-266 794 0
-266 38 0
267 -266 -41 0
-267 266 0
-267 41 0
268 -807 -265 0
-268 807 0
-268 265 0
269 -49 -785 0
-269 49 0
-269 785 0
270 -269 -797 0
-270 269 0
-270 797 0
271 -808 -268 0
-271 808 0
-271 268 0
272 -724 -23 0
-272 724 0
-272 23 0
273 -272 -9 0
-273 272 0
-273 9 0
274 -809 -271 0
-274 809 0
-274 271 0
275 -35 -6 0
-275 35 0
-275 6 0
276 -275 -743 0
-276 275 0
-276 743 0
277 -810 -274 0
-277 810 0
-277 274 0
278 -41 -779 0
-278 41 0
-278 779 0
279 -278 -19 0
-279 278 0
-279 19 0
280 -811 -277 0
-280 811 0
-280 277 0
281 -696 -705 0
-281 696 0
-281 705 0
282 -281 -783 0
-282 281 0
-282 783 0
283 -812 -280 0
-283 812 0
-283 280 0
284 -749 -731 0
-284 749 0
-284 731 0
285 -284 -743 0
-285 284 0
-285 743 0
286 -813 -283 0
-286 813 0
-286 283 0
287 -715 -713 0
-287 715 0
-287 713 0
288 -287 -9 0
-288 287 0
-288 9 0
289 -814 -286 0
-289 814 0
-289 286 0
290 -749 -754 0
-290 749 0
-290 754 0
291 -290 -713 0
-291 290 0
-291 713 0
292 -815 -289 0
-292 815 0
-292 289 0
293 -42 -40 0
-293 42 0
-293 40 0
294 -293 -16 0
-294 293 0
-294 16 0
295 -816 -292 0
-295 816 0
-295 292 0
296 -761 -692 0
-296 761 0
-296 692 0
297 -296 -706 0
-297 296 0
-297 706 0
298 -817 -295 0
-298 817 0
-298 295 0
299 -92 -749 0
-299 92 0
-299 749 0
300 -818 -298 0
-300 818 0
-300 298 0
301 -22 -14 0
-301 22 0
-301 14 0
302 -301 -819 0
-302 301 0
-302 819 0
303 -820 -300 0
-303 820 0
-303 300 0
304 -34 -28 0
-304 34 0
-304 28 0
305 -304 -711 0
-305 304 0
-305 711 0
306 -821 -303 0
-306 821 0
-306 303 0
307 -822 -14 0
-307 822 0
-307 14 0
308 -307 -704 0
-308 307 0
-308 704 0
309 -823 -306 0
-309 823 0
-309 306 0
310 -699 -734 0
-310 699 0
-310 734 0
311 -310 -43 0
-311 310 0
-311 43 0
312 -824 -309 0
-312 824 0
-312 309 0
313 -20 -1 0
-313 20 0
-313 1 0
314 -313 -7 0
-314 313 0
-314 7 0
315 -825 -312 0
-315 825 0
-315 312 0
316 -28 -705 0
-316 28 0
-316 705 0
317 -316 -734 0
-317 316 0
-317 734 0
318 -826 -315 0
-318 826 0
-318 315 0
319 -7 -702 0
-319 7 0
-319 702 0
320 -319 -33 0
-320 319 0
-320 33 0
321 -827 -318 0
-321 827 0
-321 318 0
322 -20 -699 0
-322 20 0
-322 699 0
323 -322 -700 0
-323 322 0
-323 700 0
324 -828 -321 0
-324 828 0
-324 321 0
325 -38 -16 0
-325 38 0
-325 16 0
326 -325 -792 0
-326 325 0
-326 792 0
327 -829 -324 0
-327 829 0
-327 324 0
328 -741 -26 0
-328 741 0
-328 26 0
329 -328 -37 0
-329 328 0
-329 37 0
330 -830 -327 0
-330 830 0
-330 327 0
331 -12 -11 0
-331 12 0
-331 11 0
332 -331 -697 0
-332 331 0
-332 697 0
333 -831 -330 0
-333 831 0
-333 330 0
334 -832 -761 0
-334 832 0
-334 761 0
335 -334 -769 0
-335 334 0
-335 769 0
336 -833 -333 0
-336 833 0
-336 333 0
337 -741 -689 0
-337 741 0
-337 689 0
338 -337 -25 0
-338 337 0
-338 25 0
339 -834 -336 0
-339 834 0
-339 336 0
340 -25 -699 0
-340 25 0
-340 699 0
341 -340 -9 0
-341 340 0
-341 9 0
342 -835 -339 0
-342 835 0
-342 339 0
343 -200 -37 0
-343 200 0
-343 37 0
344 -836 -342 0
-344 836 0
-344 342 0
345 -4 -1 0
-345 4 0
-345 1 0
346 -345 -837 0
-346 345 0
-346 837 0
347 -838 -344 0
-347 838 0
-347 344 0
348 -41 -717 0
-348 41 0
-348 717 0
349 -348 -34 0
-349 348 0
-349 34 0
350 -839 -347 0
-350 839 0
-350 347 0
351 -840 -702 0
-351 840 0
-351 702 0
352 -351 -33 0
-352 351 0
-352 33 0
353 -841 -350 0
-353 841 0
-353 350 0
354 -40 -16 0
-354 40 0
-354 16 0
355 -354 -749 0
-355 354 0
-355 749 0
356 -842 -353 0
-356 842 0
-356 353 0
357 -832 -5 0
-357 832 0
-357 5 0
358 -357 -749 0
-358 357 0
-358 749 0
359 -843 -356 0
-359 843 0
-359 356 0
360 -27 -26 0
-360 27 0
-360 26 0
361 -360 -43 0
-361 360 0
-361 43 0
362 -844 -359 0
-362 844 0
-362 359 0
363 -721 -705 0
-363 721 0
-363 705 0
364 -363 -711 0
-364 363 0
-364 711 0
365 -845 -362 0
-365 845 0
-365 362 0
366 -41 -31 0
-366 41 0
-366 31 0
367 -366 -22 0
-367 366 0
-367 22 0
368 -846 -365 0
-368 846 0
-368 365 0
369 -26 -6 0
-369 26 0
-369 6 0
370 -369 -46 0
-370 369 0
-370 46 0
371 -847 -368 0
-371 847 0
-371 368 0
372 -18 -3 0
-372 18 0
-372 3 0
373 -372 -9 0
-373 372 0
-373 9 0
374 -848 -371 0
-374 848 0
-374 371 0
375 -724 -1 0
-375 724 0
-375 1 0
376 -375 -34 0
-376 375 0
-376 34 0
377 -849 -374 0
-377 849 0
-377 374 0
378 -766 -709 0
-378 766 0
-378 709 0
379 -378 -48 0
-379 378 0
-379 48 0
380 -850 -377 0
-380 850 0
-380 377 0
381 -221 -705 0
-381 221 0
-381 705 0
382 -851 -380 0
-382 851 0
-382 380 0
383 -766 -717 0
-383 766 0
-383 717 0
384 -383 -18 0
-384 383 0
-384 18 0
385 -852 -382 0
-385 852 0
-385 382 0
386 -41 -721 0
-386 41 0
-386 721 0
387 -386 -22 0
-387 386 0
-387 22 0
388 -853 -385 0
-388 853 0
-388 385 0
389 -741 -724 0
-389 741 0
-389 724 0
390 -389 -8 0
-390 389 0
-390 8 0
391 -854 -388 0
-391 854 0
-391 388 0
392 -745 -715 0
-392 745 0
-392 715 0
393 -392 -21 0
-393 392 0
-393 21 0
394 -855 -391 0
-394 855 0
-394 391 0
395 -42 -692 0
-395 42 0
-395 692 0
396 -395 -792 0
-396 395 0
-396 792 0
397 -856 -394 0
-397 856 0
-397 394 0
398 -840 -30 0
-398 840 0
-398 30 0
399 -398 -25 0
-399 398 0
-399 25 0
400 -857 -397 0
-400 857 0
-400 397 0
401 -743 -705 0
-401 743 0
-401 705 0
402 -401 -737 0
-402 401 0
-402 737 0
403 -858 -400 0
-403 858 0
-403 400 0
404 -50 -13 0
-404 50 0
-404 13 0
405 -404 -737 0
-405 404 0
-405 737 0
406 -859 -403 0
-406 859 0
-406 403 0
407 -713 -709 0
-407 713 0
-407 709 0
408 -407 -706 0
-408 407 0
-408 706 0
409 -860 -406 0
-409 860 0
-409 406 0
410 -726 -705 0
-410 726 0
-410 705 0
411 -410 -735 0
-411 410 0
-411 735 0
412 -861 -409 0
-412 861 0
-412 409 0
413 -47 -13 0
-413 47 0
-413 13 0
414 -413 -700 0
-414 413 0
-414 700 0
415 -862 -412 0
-415 862 0
-415 412 0
416 -34 -700 0
-416 34 0
-416 700 0
417 -416 -797 0
-417 416 0
-417 797 0
418 -863 -415 0
-418 863 0
-418 415 0
419 -26 -13 0
-419 26 0
-419 13 0
420 -419 -737 0
-420 419 0
-420 737 0
421 -864 -418 0
-421 864 0
-421 418 0
422 -6 -2 0
-422 6 0
-422 2 0
423 -422 -34 0
-423 422 0
-423 34 0
424 -865 -421 0
-424 865 0
-424 421 0
425 -761 -779 0
-425 761 0
-425 779 0
426 -425 -735 0
-426 425 0
-426 735 0
427 -866 -424 0
-427 866 0
-427 424 0
428 -745 -26 0
-428 745 0
-428 26 0
429 -428 -24 0
-429 428 0
-429 24 0
430 -867 -427 0
-430 867 0
-430 427 0
431 -741 -761 0
-431 741 0
-431 761 0
432 -431 -693 0
-432 431 0
-432 693 0
433 -868 -430 0
-433 868 0
-433 430 0
434 -741 -1 0
-434 741 0
-434 1 0
435 -434 -726 0
-435 434 0
-435 726 0
436 -869 -433 0
-436 869 0
-436 433 0
437 -49 -700 0
-437 49 0
-437 700 0
438 -437 -19 0
-438 437 0
-438 19 0
439 -870 -436 0
-439 870 0
-439 436 0
440 -832 -731 0
-440 832 0
-440 731 0
441 -440 -47 0
-441 440 0
-441 47 0
442 -871 -439 0
-442 871 0
-442 439 0
443 -803 -766 0
-443 803 0
-443 766 0
444 -443 -697 0
-444 443 0
-444 697 0
445 -872 -442 0
-445 872 0
-445 442 0
446 -29 -763 0
-446 29 0
-446 763 0
447 -446 -737 0
-447 446 0
-447 737 0
448 -873 -445 0
-448 873 0
-448 445 0
449 -23 -21 0
-449 23 0
-449 21 0
450 -449 -19 0
-450 449 0
-450 19 0
451 -874 -448 0
-451 874 0
-451 448 0
452 -38 -11 0
-452 38 0
-452 11 0
453 -452 -713 0
-453 452 0
-453 713 0
454 -875 -451 0
-454 875 0
-454 451 0
455 -711 -15 0
-455 711 0
-455 15 0
456 -455 -792 0
-456 455 0
-456 792 0
457 -876 -454 0
-457 876 0
-457 454 0
458 -794 -783 0
-458 794 0
-458 783 0
459 -458 -706 0
-459 458 0
-459 706 0
460 -877 -457 0
-460 877 0
-460 457 0
461 -699 -754 0
-461 699 0
-461 754 0
462 -461 -35 0
-462 461 0
-462 35 0
463 -878 -460 0
-463 878 0
-463 460 0
464 -700 -699 0
-464 700 0
-464 699 0
465 -464 -819 0
-465 464 0
-465 819 0
466 -879 -463 0
-466 879 0
-466 463 0
467 -715 -705 0
-467 715 0
-467 705 0
468 -467 -45 0
-468 467 0
-468 45 0
469 -880 -466 0
-469 880 0
-469 466 0
470 -749 -689 0
-470 749 0
-470 689 0
471 -470 -819 0
-471 470 0
-471 819 0
472 -881 -469 0
-472 881 0
-472 469 0
473 -34 -718 0
-473 34 0
-473 718 0
474 -473 -819 0
-474 473 0
-474 819 0
475 -882 -472 0
-475 882 0
-475 472 0
476 -745 -7 0
-476 745 0
-476 7 0
477 -476 -735 0
-477 476 0
-477 735 0
478 -883 -475 0
-478 883 0
-478 475 0
479 -26 -1 0
-479 26 0
-479 1 0
480 -479 -33 0
-480 479 0
-480 33 0
481 -884 -478 0
-481 884 0
-481 478 0
482 -50 -692 0
-482 50 0
-482 692 0
483 -482 -697 0
-483 482 0
-483 697 0
484 -885 -481 0
-484 885 0
-484 481 0
485 -745 -29 0
-485 745 0
-485 29 0
486 -485 -769 0
-486 485 0
-486 769 0
487 -886 -484 0
-487 886 0
-487 484 0
488 -709 -15 0
-488 709 0
-488 15 0
489 -488 -702 0
-489 488 0
-489 702 0
490 -887 -487 0
-490 887 0
-490 487 0
491 -50 -689 0
-491 50 0
-491 689 0
492 -491 -819 0
-492 491 0
-492 819 0
493 -888 -490 0
-493 888 0
-493 490 0
494 -726 -31 0
-494 726 0
-494 31 0
495 -494 -30 0
-495 494 0
-495 30 0
496 -889 -493 0
-496 889 0
-496 493 0
497 -732 -718 0
-497 732 0
-497 718 0
498 -497 -48 0
-498 497 0
-498 48 0
499 -890 -496 0
-499 890 0
-499 496 0
500 -38 -731 0
-500 38 0
-500 731 0
501 -500 -743 0
-501 500 0
-501 743 0
502 -891 -499 0
-502 891 0
-502 499 0
503 -708 -13 0
-503 708 0
-503 13 0
504 -503 -737 0
-504 503 0
-504 737 0
505 -892 -502 0
-505 892 0
-505 502 0
506 -31 -1 0
-506 31 0
-506 1 0
507 -506 -706 0
-507 506 0
-507 706 0
508 -893 -505 0
-508 893 0
-508 505 0
509 -837 -8 0
-509 837 0
-509 8 0
510 -509 -36 0
-510 509 0
-510 36 0
511 -894 -508 0
-511 894 0
-511 508 0
512 -473 -44 0
-512 473 0
-512 44 0
513 -895 -511 0
-513 895 0
-513 511 0
514 -26 -12 0
-514 26 0
-514 12 0
515 -514 -41 0
-515 514 0
-515 41 0
516 -896 -513 0
-516 896 0
-516 513 0
517 -702 -4 0
-517 702 0
-517 4 0
518 -517 -832 0
-518 517 0
-518 832 0
519 -897 -516 0
-519 897 0
-519 516 0
520 -739 -35 0
-520 739 0
-520 35 0
521 -520 -41 0
-521 520 0
-521 41 0
522 -898 -519 0
-522 898 0
-522 519 0
523 -726 -718 0
-523 726 0
-523 718 0
524 -523 -713 0
-524 523 0
-524 713 0
525 -899 -522 0
-525 899 0
-525 522 0
526 -739 -708 0
-526 739 0
-526 708 0
527 -526 -39 0
-527 526 0
-527 39 0
528 -900 -525 0
-528 900 0
-528 525 0
529 -741 -734 0
-529 741 0
-529 734 0
530 -529 -711 0
-530 529 0
-530 711 0
531 -901 -528 0
-531 901 0
-531 528 0
532 -152 -39 0
-532 152 0
-532 39 0
533 -902 -531 0
-533 902 0
-533 531 0
534 -28 -13 0
-534 28 0
-534 13 0
535 -534 -711 0
-535 534 0
-535 711 0
536 -903 -533 0
-536 903 0
-536 533 0
537 -47 -741 0
-537 47 0
-537 741 0
538 -537 -737 0
-538 537 0
-538 737 0
539 -904 -536 0
-539 904 0
-539 536 0
540 -696 -832 0
-540 696 0
-540 832 0
541 -540 -32 0
-541 540 0
-541 32 0
542 -905 -539 0
-542 905 0
-542 539 0
543 -8 -785 0
-543 8 0
-543 785 0
544 -543 -737 0
-544 543 0
-544 737 0
545 -906 -542 0
-545 906 0
-545 542 0
546 -35 -17 0
-546 35 0
-546 17 0
547 -546 -704 0
-547 546 0
-547 704 0
548 -907 -545 0
-548 907 0
-548 545 0
549 -49 -25 0
-549 49 0
-549 25 0
550 -549 -29 0
-550 549 0
-550 29 0
551 -908 -548 0
-551 908 0
-551 548 0
552 -832 -7 0
-552 832 0
-552 7 0
553 -552 -794 0
-553 552 0
-553 794 0
554 -909 -551 0
-554 909 0
-554 551 0
555 -50 -832 0
-555 50 0
-555 832 0
556 -555 -704 0
-556 555 0
-556 704 0
557 -910 -554 0
-557 910 0
-557 554 0
558 -479 -711 0
-558 479 0
-558 711 0
559 -911 -557 0
-559 911 0
-559 557 0
560 -17 -754 0
-560 17 0
-560 754 0
561 -560 -692 0
-561 560 0
-561 692 0
562 -912 -559 0
-562 912 0
-562 559 0
563 -95 -702 0
-563 95 0
-563 702 0
564 -913 -562 0
-564 913 0
-564 562 0
565 -717 -702 0
-565 717 0
-565 702 0
566 -565 -732 0
-566 565 0
-566 732 0
567 -914 -564 0
-567 914 0
-567 564 0
568 -20 -8 0
-568 20 0
-568 8 0
569 -568 -9 0
-569 568 0
-569 9 0
570 -915 -567 0
-570 915 0
-570 567 0
571 -45 -2 0
-571 45 0
-571 2 0
572 -571 -697 0
-572 571 0
-572 697 0
573 -916 -570 0
-573 916 0
-573 570 0
574 -803 -25 0
-574 803 0
-574 25 0
575 -574 -792 0
-575 574 0
-575 792 0
576 -917 -573 0
-576 917 0
-576 573 0
577 -766 -754 0
-577 766 0
-577 754 0
578 -577 -24 0
-578 577 0
-578 24 0
579 -918 -576 0
-579 918 0
-579 576 0
580 -42 -24 0
-580 42 0
-580 24 0
581 -580 -706 0
-581 580 0
-581 706 0
582 -919 -579 0
-582 919 0
-582 579 0
583 -705 -2 0
-583 705 0
-583 2 0
584 -583 -23 0
-584 583 0
-584 23 0
585 -920 -582 0
-585 920 0
-585 582 0
586 -794 -761 0
-586 794 0
-586 761 0
587 -586 -704 0
-587 586 0
-587 704 0
588 -921 -585 0
-588 921 0
-588 585 0
589 -38 -4 0
-589 38 0
-589 4 0
590 -589 -766 0
-590 589 0
-590 766 0
591 -922 -588 0
-591 922 0
-591 588 0
592 -7 -754 0
-592 7 0
-592 754 0
593 -592 -50 0
-593 592 0
-593 50 0
594 -923 -591 0
-594 923 0
-594 591 0
595 -721 -4 0
-595 721 0
-595 4 0
596 -595 -22 0
-596 595 0
-596 22 0
597 -924 -594 0
-597 924 0
-597 594 0
598 -726 -699 0
-598 726 0
-598 699 0
599 -598 -711 0
-599 598 0
-599 711 0
600 -925 -597 0
-600 925 0
-600 597 0
601 -278 -24 0
-601 278 0
-601 24 0
602 -926 -600 0
-602 926 0
-602 600 0
603 -696 -12 0
-603 696 0
-603 12 0
604 -603 -22 0
-604 603 0
-604 22 0
605 -927 -602 0
-605 927 0
-605 602 0
606 -38 -702 0
-606 38 0
-606 702 0
607 -606 -721 0
-607 606 0
-607 721 0
608 -928 -605 0
-608 928 0
-608 605 0
609 -47 -2 0
-609 47 0
-609 2 0
610 -609 -3 0
-610 609 0
-610 3 0
611 -929 -608 0
-611 929 0
-611 608 0
612 -761 -693 0
-612 761 0
-612 693 0
613 -612 -36 0
-613 612 0
-613 36 0
614 -930 -611 0
-614 930 0
-614 611 0
615 -763 -4 0
-615 763 0
-615 4 0
616 -615 -731 0
-616 615 0
-616 731 0
617 -931 -614 0
-617 931 0
-617 614 0
618 -734 -761 0
-618 734 0
-618 761 0
619 -618 -18 0
-619 618 0
-619 18 0
620 -932 -617 0
-620 932 0
-620 617 0
621 -749 -779 0
-621 749 0
-621 779 0
622 -621 -3 0
-622 621 0
-622 3 0
623 -933 -620 0
-623 933 0
-623 620 0
624 -715 -13 0
-624 715 0
-624 13 0
625 -624 -45 0
-625 624 0
-625 45 0
626 -934 -623 0
-626 934 0
-626 623 0
627 -28 -8 0
-627 28 0
-627 8 0
628 -627 -766 0
-628 627 0
-628 766 0
629 -935 -626 0
-629 935 0
-629 626 0
630 -35 -709 0
-630 35 0
-630 709 0
631 -630 -22 0
-631 630 0
-631 22 0
632 -936 -629 0
-632 936 0
-632 629 0
633 -20 -734 0
-633 20 0
-633 734 0
634 -633 -797 0
-634 633 0
-634 797 0
635 -937 -632 0
-635 937 0
-635 632 0
636 -316 -50 0
-636 316 0
-636 50 0
637 -938 -635 0
-637 938 0
-637 635 0
638 -11 -1 0
-638 11 0
-638 1 0
639 -638 -797 0
-639 638 0
-639 797 0
640 -939 -637 0
-640 939 0
-640 637 0
641 -28 -832 0
-641 28 0
-641 832 0
642 -641 -32 0
-642 641 0
-642 32 0
643 -940 -640 0
-643 940 0
-643 640 0
644 -182 -708 0
-644 182 0
-644 708 0
645 -941 -643 0
-645 941 0
-645 643 0
646 -709 -4 0
-646 709 0
-646 4 0
647 -646 -783 0
-647 646 0
-647 783 0
648 -942 -645 0
-648 942 0
-648 645 0
649 -45 -41 0
-649 45 0
-649 41 0
650 -649 -44 0
-650 649 0
-650 44 0
651 -943 -648 0
-651 943 0
-651 648 0
652 -37 -704 0
-652 37 0
-652 704 0
653 -652 -706 0
-653 652 0
-653 706 0
654 -944 -651 0
-654 944 0
-654 651 0
655 -15 -731 0
-655 15 0
-655 731 0
656 -655 -43 0
-656 655 0
-656 43 0
657 -945 -654 0
-657 945 0
-657 654 0
658 -392 -25 0
-658 392 0
-658 25 0
659 -946 -657 0
-659 946 0
-659 657 0
660 -33 -732 0
-660 33 0
-660 732 0
661 -660 -12 0
-661 660 0
-661 12 0
662 -947 -659 0
-662 947 0
-662 659 0
663 -840 -34 0
-663 840 0
-663 34 0
664 -663 -22 0
-664 663 0
-664 22 0
665 -948 -662 0
-665 948 0
-665 662 0
666 -242 -792 0
-666 242 0
-666 792 0
667 -949 -665 0
-667 949 0
-667 665 0
668 -35 -708 0
-668 35 0
-668 708 0
669 -668 -734 0
-669 668 0
-669 734 0
670 -950 -667 0
-670 950 0
-670 667 0
671 -32 -749 0
-671 32 0
-671 749 0
672 -671 -19 0
-672 671 0
-672 19 0
673 -951 -670 0
-673 951 0
-673 670 0
674 -21 -763 0
-674 21 0
-674 763 0
675 -674 -50 0
-675 674 0
-675 50 0
676 -952 -673 0
-676 952 0
-676 673 0
677 -20 -13 0
-677 20 0
-677 13 0
678 -677 -704 0
-678 677 0
-678 704 0
679 -953 -676 0
-679 953 0
-679 676 0
680 -16 -689 0
-680 16 0
-680 689 0
681 -680 -36 0
-681 680 0
-681 36 0
682 -954 -679 0
-682 954 0
-682 679 0
683 -724 -715 0
-683 724 0
-683 715 0
684 -683 -726 0
-684 683 0
-684 726 0
685 -955 -682 0
-685 955 0
-685 682 0
686 -721 -692 0
-686 721 0
-686 692 0
687 -686 -769 0
-687 686 0
-687 769 0
688 -956 -685 0
-688 956 0
-688 685 0
-689 -1 0
689 1 0
-690 -54 0
690 54 0
-691 -52 0
691 52 0
-692 -8 0
692 8 0
-693 -9 0
693 9 0
-694 -57 0
694 57 0
-695 -60 0
695 60 0
-696 -14 0
696 14 0
-697 -3 0
697 3 0
-698 -63 0
698 63 0
-699 -15 0
699 15 0
-700 -16 0
700 16 0
-701 -66 0
701 66 0
-702 -5 0
702 5 0
-703 -69 0
703 69 0
-704 -18 0
704 18 0
-705 -7 0
705 7 0
-706 -19 0
706 19 0
-707 -72 0
707 72 0
-708 -21 0
708 21 0
-709 -20 0
709 20 0
-710 -75 0
710 75 0
-711 -22 0
711 22 0
-712 -78 0
712 78 0
-713 -25 0
713 25 0
-714 -81 0
714 81 0
-715 -26 0
715 26 0
-716 -84 0
716 84 0
-717 -28 0
717 28 0
-718 -27 0
718 27 0
-719 -87 0
719 87 0
-720 -90 0
720 90 0
-721 -31 0
721 31 0
-722 -93 0
722 93 0
-723 -96 0
723 96 0
-724 -33 0
724 33 0
-725 -99 0
725 99 0
-726 -35 0
726 35 0
-727 -102 0
727 102 0
-728 -105 0
728 105 0
-729 -107 0
729 107 0
-730 -109 0
730 109 0
-731 -10 0
731 10 0
-732 -30 0
732 30 0
-733 -112 0
733 112 0
-734 -12 0
734 12 0
-735 -23 0
735 23 0
-736 -115 0
736 115 0
-737 -37 0
737 37 0
-738 -117 0
738 117 0
-739 -38 0
739 38 0
-740 -120 0
740 120 0
-741 -39 0
741 39 0
-742 -123 0
742 123 0
-743 -29 0
743 29 0
-744 -126 0
744 126 0
-745 -40 0
745 40 0
-746 -129 0
746 129 0
-747 -132 0
747 132 0
-748 -135 0
748 135 0
-749 -24 0
749 24 0
-750 -138 0
750 138 0
-751 -141 0
751 141 0
-752 -43 0
752 43 0
-753 -144 0
753 144 0
-754 -6 0
754 6 0
-755 -147 0
755 147 0
-756 -150 0
756 150 0
-757 -153 0
757 153 0
-758 -156 0
758 156 0
-759 -159 0
759 159 0
-760 -162 0
760 162 0
-761 -11 0
761 11 0
-762 -165 0
762 165 0
-763 -17 0
763 17 0
-764 -168 0
764 168 0
-765 -171 0
765 171 0
-766 -32 0
766 32 0
-767 -174 0
767 174 0
-768 -177 0
768 177 0
-769 -44 0
769 44 0
-770 -180 0
770 180 0
-771 -183 0
771 183 0
-772 -186 0
772 186 0
-773 -189 0
773 189 0
-774 -192 0
774 192 0
-775 -195 0
775 195 0
-776 -198 0
776 198 0
-777 -201 0
777 201 0
-778 -204 0
778 204 0
-779 -4 0
779 4 0
-780 -207 0
780 207 0
-781 -210 0
781 210 0
-782 -213 0
782 213 0
-783 -46 0
783 46 0
-784 -216 0
784 216 0
-785 -2 0
785 2 0
-786 -219 0
786 219 0
-787 -222 0
787 222 0
-788 -42 0
788 42 0
-789 -225 0
789 225 0
-790 -228 0
790 228 0
-791 -231 0
791 231 0
-792 -36 0
792 36 0
-793 -234 0
793 234 0
-794 -47 0
794 47 0
-795 -237 0
795 237 0
-796 -240 0
796 240 0
-797 -45 0
797 45 0
-798 -243 0
798 243 0
-799 -246 0
799 246 0
-800 -249 0
800 249 0
-801 -252 0
801 252 0
-802 -255 0
802 255 0
-803 -34 0
803 34 0
-804 -258 0
804 258 0
-805 -261 0
805 261 0
-806 -264 0
806 264 0
-807 -267 0
807 267 0
-808 -270 0
808 270 0
-809 -273 0
809 273 0
-810 -276 0
810 276 0
-811 -279 0
811 279 0
-812 -282 0
812 282 0
-813 -285 0
813 285 0
-814 -288 0
814 288 0
-815 -291 0
815 291 0
-816 -294 0
816 294 0
-817 -297 0
817 297 0
-818 -299 0
818 299 0
-819 -48 0
819 48 0
-820 -302 0
820 302 0
-821 -305 0
821 305 0
-822 -41 0
822 41 0
-823 -308 0
823 308 0
-824 -311 0
824 311 0
-825 -314 0
825 314 0
-826 -317 0
826 317 0
-827 -320 0
827 320 0
-828 -323 0
828 323 0
-829 -326 0
829 326 0
-830 -329 0
830 329 0
-831 -332 0
831 332 0
-832 -13 0
832 13 0
-833 -335 0
833 335 0
-834 -338 0
834 338 0
-835 -341 0
835 341 0
-836 -343 0
836 343 0
-837 -50 0
837 50 0
-838 -346 0
838 346 0
-839 -349 0
839 349 0
-840 -49 0
840 49 0
-841 -352 0
841 352 0
-842 -355 0
842 355 0
-843 -358 0
843 358 0
-844 -361 0
844 361 0
-845 -364 0
845 364 0
-846 -367 0
846 367 0
-847 -370 0
847 370 0
-848 -373 0
848 373 0
-849 -376 0
849 376 0
-850 -379 0
850 379 0
-851 -381 0
851 381 0
-852 -384 0
852 384 0
-853 -387 0
853 387 0
-854 -390 0
854 390 0
-855 -393 0
855 393 0
-856 -396 0
856 396 0
-857 -399 0
857 399 0
-858 -402 0
858 402 0
-859 -405 0
859 405 0
-860 -408 0
860 408 0
-861 -411 0
861 411 0
-862 -414 0
862 414 0
-863 -417 0
863 417 0
-864 -420 0
864 420 0
-865 -423 0
865 423 0
-866 -426 0
866 426 0
-867 -429 0
867 429 0
-868 -432 0
868 432 0
-869 -435 0
869 435 0
-870 -438 0
870 438 0
-871 -441 0
871 441 0
-872 -444 0
872 444 0
-873 -447 0
873 447 0
-874 -450 0
874 450 0
-875 -453 0
875 453 0
-876 -456 0
876 456 0
-877 -459 0
877 459 0
-878 -462 0
878 462 0
-879 -465 0
879 465 0
-880 -468 0
880 468 0
-881 -471 0
881 471 0
-882 -474 0
882 474 0
-883 -477 0
883 477 0
-884 -480 0
884 480 0
-885 -483 0
885 483 0
-886 -486 0
886 486 0
-887 -489 0
887 489 0
-888 -492 0
888 492 0
-889 -495 0
889 495 0
-890 -498 0
890 498 0
-891 -501 0
891 501 0
-892 -504 0
892 504 0
-893 -507 0
893 507 0
-894 -510 0
894 510 0
-895 -512 0
895 512 0
-896 -515 0
896 515 0
-897 -518 0
897 518 0
-898 -521 0
898 521 0
-899 -524 0
899 524 0
-900 -527 0
900 527 0
-901 -530 0
901 530 0
-902 -532 0
902 532 0
-903 -535 0
903 535 0
-904 -538 0
904 538 0
-905 -541 0
905 541 0
-906 -544 0
906 544 0
-907 -547 0
907 547 0
-908 -550 0
908 550 0
-909 -553 0
909 553 0
-910 -556 0
910 556 0
-911 -558 0
911 558 0
-912 -561 0
912 561 0
-913 -563 0
913 563 0
-914 -566 0
914 566 0
-915 -569 0
915 569 0
-916 -572 0
916 572 0
-917 -575 0
917 575 0
-918 -578 0
918 578 0
-919 -581 0
919 581 0
-920 -584 0
920 584 0
-921 -587 0
921 587 0
-922 -590 0
922 590 0
-923 -593 0
923 593 0
-924 -596 0
924 596 0
-925 -599 0
925 599 0
-926 -601 0
926 601 0
-927 -604 0
927 604 0
-928 -607 0
928 607 0
-929 -610 0
929 610 0
-930 -613 0
930 613 0
-931 -616 0
931 616 0
-932 -619 0
932 619 0
-933 -622 0
933 622 0
-934 -625 0
934 625 0
-935 -628 0
935 628 0
-936 -631 0
936 631 0
-937 -634 0
937 634 0
-938 -636 0
938 636 0
-939 -639 0
939 639 0
-940 -642 0
940 642 0
-941 -644 0
941 644 0
-942 -647 0
942 647 0
-943 -650 0
943 650 0
-944 -653 0
944 653 0
-945 -656 0
945 656 0
-946 -658 0
946 658 0
-947 -661 0
947 661 0
-948 -664 0
948 664 0
-949 -666 0
949 666 0
-950 -669 0
950 669 0
-951 -672 0
951 672 0
-952 -675 0
952 675 0
-953 -678 0
953 678 0
-954 -681 0
954 681 0
-955 -684 0
955 684 0
-956 -687 0
956 687 0
688 0
